149
1000000
325308
47245
144832
397140
344290
745528
380834
139865
230877
304314
427006
173415
17982
323582
417920
160415
305467
251453
286983
469391
163999
35925
163180
393960
572994
130909
428401
499656
599659
457933
282493
451166
659212
98442
196827
306414
63511
335187
110319
676059
263769
431995
369541
79493
548834
441059
646358
65
112546
221730
105465
48974
10147
24747
429757
415875
407870
371107
216153
75576
36481
62625
721204
8711
176102
693734
233744
288134
119503
439543
298986
232413
69509
381727
270694
606040
215186
340788
748547
639798
60126
412314
509409
567673
33864
255200
34894
76023
198735
444260
163893
211217
254472
75317
620416
192463
486326
73853
61313
148166
222986
88206
285220
372326
168256
423858
376688
399667
608430
388119
623685
413193
520378
593021
240387
283082
461640
479265
655007
277156
284265
81679
319579
619848
671
420014
38994
138803
472251
138628
484509
369702
14045
72676
372864
499377
490265
665238
226000
600395
354196
967
78277
368397
414462
15353
125029
10736
237653
